p edge 70 560
p 1 2
p 1 3
p 1 4
p 1 5
p 1 6
p 1 7
p 1 8
p 1 9
p 1 16
p 1 17
p 1 18
p 1 19
p 1 36
p 1 37
p 1 38
p 1 39
p 2 3
p 2 4
p 2 5
p 2 6
p 2 10
p 2 11
p 2 12
p 2 16
p 2 20
p 2 21
p 2 22
p 2 36
p 2 40
p 2 41
p 2 42
p 3 4
p 3 5
p 3 7
p 3 10
p 3 13
p 3 14
p 3 17
p 3 20
p 3 23
p 3 24
p 3 37
p 3 40
p 3 43
p 3 44
p 4 5
p 4 8
p 4 11
p 4 13
p 4 15
p 4 18
p 4 21
p 4 23
p 4 25
p 4 38
p 4 41
p 4 43
p 4 45
p 5 9
p 5 12
p 5 14
p 5 15
p 5 19
p 5 22
p 5 24
p 5 25
p 5 39
p 5 42
p 5 44
p 5 45
p 6 7
p 6 8
p 6 9
p 6 10
p 6 11
p 6 12
p 6 16
p 6 26
p 6 27
p 6 28
p 6 36
p 6 46
p 6 47
p 6 48
p 7 8
p 7 9
p 7 10
p 7 13
p 7 14
p 7 17
p 7 26
p 7 29
p 7 30
p 7 37
p 7 46
p 7 49
p 7 50
p 8 9
p 8 11
p 8 13
p 8 15
p 8 18
p 8 27
p 8 29
p 8 31
p 8 38
p 8 47
p 8 49
p 8 51
p 9 12
p 9 14
p 9 15
p 9 19
p 9 28
p 9 30
p 9 31
p 9 39
p 9 48
p 9 50
p 9 51
p 10 11
p 10 12
p 10 13
p 10 14
p 10 20
p 10 26
p 10 32
p 10 33
p 10 40
p 10 46
p 10 52
p 10 53
p 11 12
p 11 13
p 11 15
p 11 21
p 11 27
p 11 32
p 11 34
p 11 41
p 11 47
p 11 52
p 11 54
p 12 14
p 12 15
p 12 22
p 12 28
p 12 33
p 12 34
p 12 42
p 12 48
p 12 53
p 12 54
p 13 14
p 13 15
p 13 23
p 13 29
p 13 32
p 13 35
p 13 43
p 13 49
p 13 52
p 13 55
p 14 15
p 14 24
p 14 30
p 14 33
p 14 35
p 14 44
p 14 50
p 14 53
p 14 55
p 15 25
p 15 31
p 15 34
p 15 35
p 15 45
p 15 51
p 15 54
p 15 55
p 16 17
p 16 18
p 16 19
p 16 20
p 16 21
p 16 22
p 16 26
p 16 27
p 16 28
p 16 36
p 16 56
p 16 57
p 16 58
p 17 18
p 17 19
p 17 20
p 17 23
p 17 24
p 17 26
p 17 29
p 17 30
p 17 37
p 17 56
p 17 59
p 17 60
p 18 19
p 18 21
p 18 23
p 18 25
p 18 27
p 18 29
p 18 31
p 18 38
p 18 57
p 18 59
p 18 61
p 19 22
p 19 24
p 19 25
p 19 28
p 19 30
p 19 31
p 19 39
p 19 58
p 19 60
p 19 61
p 20 21
p 20 22
p 20 23
p 20 24
p 20 26
p 20 32
p 20 33
p 20 40
p 20 56
p 20 62
p 20 63
p 21 22
p 21 23
p 21 25
p 21 27
p 21 32
p 21 34
p 21 41
p 21 57
p 21 62
p 21 64
p 22 24
p 22 25
p 22 28
p 22 33
p 22 34
p 22 42
p 22 58
p 22 63
p 22 64
p 23 24
p 23 25
p 23 29
p 23 32
p 23 35
p 23 43
p 23 59
p 23 62
p 23 65
p 24 25
p 24 30
p 24 33
p 24 35
p 24 44
p 24 60
p 24 63
p 24 65
p 25 31
p 25 34
p 25 35
p 25 45
p 25 61
p 25 64
p 25 65
p 26 27
p 26 28
p 26 29
p 26 30
p 26 32
p 26 33
p 26 46
p 26 56
p 26 66
p 26 67
p 27 28
p 27 29
p 27 31
p 27 32
p 27 34
p 27 47
p 27 57
p 27 66
p 27 68
p 28 30
p 28 31
p 28 33
p 28 34
p 28 48
p 28 58
p 28 67
p 28 68
p 29 30
p 29 31
p 29 32
p 29 35
p 29 49
p 29 59
p 29 66
p 29 69
p 30 31
p 30 33
p 30 35
p 30 50
p 30 60
p 30 67
p 30 69
p 31 34
p 31 35
p 31 51
p 31 61
p 31 68
p 31 69
p 32 33
p 32 34
p 32 35
p 32 52
p 32 62
p 32 66
p 32 70
p 33 34
p 33 35
p 33 53
p 33 63
p 33 67
p 33 70
p 34 35
p 34 54
p 34 64
p 34 68
p 34 70
p 35 55
p 35 65
p 35 69
p 35 70
p 36 37
p 36 38
p 36 39
p 36 40
p 36 41
p 36 42
p 36 46
p 36 47
p 36 48
p 36 56
p 36 57
p 36 58
p 37 38
p 37 39
p 37 40
p 37 43
p 37 44
p 37 46
p 37 49
p 37 50
p 37 56
p 37 59
p 37 60
p 38 39
p 38 41
p 38 43
p 38 45
p 38 47
p 38 49
p 38 51
p 38 57
p 38 59
p 38 61
p 39 42
p 39 44
p 39 45
p 39 48
p 39 50
p 39 51
p 39 58
p 39 60
p 39 61
p 40 41
p 40 42
p 40 43
p 40 44
p 40 46
p 40 52
p 40 53
p 40 56
p 40 62
p 40 63
p 41 42
p 41 43
p 41 45
p 41 47
p 41 52
p 41 54
p 41 57
p 41 62
p 41 64
p 42 44
p 42 45
p 42 48
p 42 53
p 42 54
p 42 58
p 42 63
p 42 64
p 43 44
p 43 45
p 43 49
p 43 52
p 43 55
p 43 59
p 43 62
p 43 65
p 44 45
p 44 50
p 44 53
p 44 55
p 44 60
p 44 63
p 44 65
p 45 51
p 45 54
p 45 55
p 45 61
p 45 64
p 45 65
p 46 47
p 46 48
p 46 49
p 46 50
p 46 52
p 46 53
p 46 56
p 46 66
p 46 67
p 47 48
p 47 49
p 47 51
p 47 52
p 47 54
p 47 57
p 47 66
p 47 68
p 48 50
p 48 51
p 48 53
p 48 54
p 48 58
p 48 67
p 48 68
p 49 50
p 49 51
p 49 52
p 49 55
p 49 59
p 49 66
p 49 69
p 50 51
p 50 53
p 50 55
p 50 60
p 50 67
p 50 69
p 51 54
p 51 55
p 51 61
p 51 68
p 51 69
p 52 53
p 52 54
p 52 55
p 52 62
p 52 66
p 52 70
p 53 54
p 53 55
p 53 63
p 53 67
p 53 70
p 54 55
p 54 64
p 54 68
p 54 70
p 55 65
p 55 69
p 55 70
p 56 57
p 56 58
p 56 59
p 56 60
p 56 62
p 56 63
p 56 66
p 56 67
p 57 58
p 57 59
p 57 61
p 57 62
p 57 64
p 57 66
p 57 68
p 58 60
p 58 61
p 58 63
p 58 64
p 58 67
p 58 68
p 59 60
p 59 61
p 59 62
p 59 65
p 59 66
p 59 69
p 60 61
p 60 63
p 60 65
p 60 67
p 60 69
p 61 64
p 61 65
p 61 68
p 61 69
p 62 63
p 62 64
p 62 65
p 62 66
p 62 70
p 63 64
p 63 65
p 63 67
p 63 70
p 64 65
p 64 68
p 64 70
p 65 69
p 65 70
p 66 67
p 66 68
p 66 69
p 66 70
p 67 68
p 67 69
p 67 70
p 68 69
p 68 70
p 69 70
